$molecule
0 1
C	 0.99086	-0.26623	 0.96805
C	 1.2376		 0.25632	-0.38831
C	 0.27806	 0.2061		-1.40641
C	 0.57398	 0.66976	-2.6811
C	 1.83253	 1.19		-2.96838
C	 2.80033	 1.23014	-1.96961
C	 2.50617	 0.75861	-0.69674
C	-0.12407	-0.26101	 1.71287
C	-1.4311		 0.37695	 1.47448
C	-1.5684		 1.60958	 0.82512
C	-2.81965	 2.18904	 0.66446
C	-3.95929	 1.55397	 1.14953
C	-3.83451	 0.33697	 1.81193
C	-2.58146	-0.23805	 1.98011
H	 1.85126	-0.74471	 1.41512
H	-0.69523	-0.20771	-1.20136
H	-0.17704	 0.6181		-3.45426
H	 2.05918	 1.54927	-3.96002
H	 3.78257	 1.62243	-2.1829
H	 3.26412	 0.78679	 0.07195
H	-0.06223	-0.7936		 2.65172
H	-0.69341	 2.11897	 0.45746
H	-2.90503	 3.14215	 0.1657
H	-4.92998	 2.00713	 1.02204
H	-4.70945	-0.16001	 2.20143
H	-2.49144	-1.17974	 2.50099
$end

$rem
JOBTYPE			= opt
METHOD  		= rimp2
N_FROZEN_CORE           = fc 
BASIS   		= 6-31G
AUX_BASIS		= rimp2-cc-pVDZ
GEOM_OPT_MAX_CYCLES 	= 250
MAX_SCF_CYCLES 		= 200
SYMMETRY 		= true
MEM_TOTAL 		= 20000
MEM_STATIC 		= 2000
$end
