$molecule
0 1
 O                 -0.09187583   -1.88044759    0.00000000
 C                 -0.16674458    1.44295519    0.00000000
 C                  0.11505767    0.39645850    1.10531272
 C                  0.11505767    0.39645850   -1.10531272
 C                  0.02163318   -0.67379786    0.00000000
 H                 -1.19965645    1.80973277    0.00000000
 H                  0.50750485    2.30455694    0.00000000
 H                 -0.65034779    0.31926498    1.87980948
 H                  1.10884103    0.45912531    1.55671625
 H                  1.10884103    0.45912531   -1.55671625
 H                 -0.65034779    0.31926498   -1.87980948
$end

$rem
JOBTYPE			= opt
METHOD  		= B3LYP
BASIS   		= 6-31G*
GEOM_OPT_MAX_CYCLES 	= 250
MAX_SCF_CYCLES 		= 200
SYMMETRY 		= false
MEM_TOTAL 		= 6400
MEM_STATIC 		= 2000
$end
