$molecule
0 1
 C                 -1.42235400    0.95064340    0.38484840
 C                 -2.68142010    1.65750270    0.10061490
 C                 -2.72832573    2.92115567   -0.49192406
 C                 -3.93980454    3.53953622   -0.75137052
 C                 -5.13287995    2.91488728   -0.41646156
 C                 -5.10259398    1.66661635    0.18523941
 C                 -3.88987428    1.04829400    0.44291145
 C                 -0.25343480    1.13267340   -0.23687830
 C                  1.00782360    0.43216310    0.05333690
 C                  1.58324376    0.39530919    1.32520996
 C                  2.76556431   -0.28937351    1.55039611
 C                  3.40645066   -0.94518577    0.50878730
 C                  2.85543791   -0.90579348   -0.76242717
 C                  1.67153600   -0.22187120   -0.98608345
 H                 -1.49408230    0.20263320    1.15337710
 H                 -1.81841155    3.43264597   -0.73611540
 H                 -3.95262716    4.51143774   -1.20569115
 H                 -6.06992556    3.39746244   -0.61514103
 H                 -6.01825071    1.17603788    0.45342945
 H                 -3.87725795    0.08057735    0.90796621
 H                 -0.19899920    1.83039680   -1.05267250
 H                  1.11836723    0.91575020    2.13898324
 H                  3.19114016   -0.30322720    2.53520928
 H                  4.32412104   -1.47174532    0.68492410
 H                  3.34466072   -1.40441432   -1.57671107
 H                  1.25210265   -0.19856160   -1.97423450
$end

$rem
JOBTYPE			= opt
METHOD  		= B3LYP
BASIS   		= 6-31G*
GEOM_OPT_MAX_CYCLES 	= 250
MAX_SCF_CYCLES 		= 200
SYMMETRY 		= false
MEM_TOTAL 		= 6400
MEM_STATIC 		= 2000
$end
